//Number of items      		
179
//Bin Capacity      
1000
//Known Best Solution  		
81
//Weight of Item
     794         1
     793         1
     792         1
     790         1
     788         1
     787         1
     784         1
     780         1
     779         1
     776         1
     774         1
     772         1
     770         1
     767         1
     762         1
     758         1
     756         2
     753         1
     750         1
     747         1
     740         2
     729         1
     728         1
     724         1
     719         2
     710         1
     702         2
     693         1
     690         1
     686         1
     682         1
     669         1
     662         1
     656         1
     655         1
     653         1
     641         1
     637         1
     634         1
     633         2
     631         1
     628         1
     626         1
     625         1
     621         1
     610         1
     605         1
     600         1
     590         1
     583         1
     579         1
     578         2
     568         1
     567         1
     563         1
     562         2
     559         1
     552         1
     549         1
     548         1
     546         2
     542         1
     540         1
     533         1
     529         1
     524         1
     522         1
     521         2
     511         1
     500         1
     499         1
     492         2
     489         1
     486         1
     483         1
     466         2
     465         1
     463         1
     455         1
     451         1
     445         2
     431         1
     426         1
     424         1
     411         1
     410         1
     405         1
     404         1
     388         1
     379         2
     366         1
     364         1
     362         1
     361         1
     350         1
     348         1
     345         1
     344         1
     335         1
     327         2
     323         1
     321         1
     319         2
     315         1
     313         1
     312         1
     300         1
     296         1
     286         1
     285         1
     280         1
     277         1
     269         1
     267         1
     266         1
     262         1
     261         1
     243         2
     234         1
     232         1
     230         1
     228         1
     225         1
     219         1
     217         1
     215         1
     214         1
     208         1
     207         1
     202         1
     199         1
     195         1
     193         1
     186         2
     183         1
     180         1
     178         1
     176         1
     174         1
     173         1
     172         2
     168         1
     163         1
     161         1
     159         1
     158         1
     150         2
     148         1
     140         1
     138         1
     133         1
     126         1
     117         1
     116         1
     115         1
     111         1
     109         1
     106         1
     100         1
      97         1
      94         1
      92         1
      90         1
      84         1
      72         2
      71         2
      66         1
      53         1
      51         1
      49         1
      41         1
      40         1
      31         1
      28         1
      10         1
       7         1
       5         1
       3         1
       1         1
